experiment/data/hgs-res/Vrp-Set-B-n39/Vrp-Set-B-n39-hgs/0.hgs1.vrp
NAME : 0
COMMENT : CVRP Instance
TYPE : CVRP
DIMENSION : 39
EDGE_WEIGHT_TYPE : EUC_2D
CAPACITY : 100
NODE_COORD_SECTION
1	37.0	21.0
2	77.0	57.0
3	97.0	79.0
4	39.0	33.0
5	45.0	47.0
6	85.0	23.0
7	7.0	1.0
8	16.0	6.0
9	21.0	13.0
10	21.0	7.0
11	12.0	6.0
12	92.0	24.0
13	92.0	32.0
14	10.0	8.0
15	19.0	15.0
16	86.0	24.0
17	106.0	84.0
18	48.0	48.0
19	8.0	2.0
20	14.0	2.0
21	14.0	2.0
22	98.0	82.0
23	106.0	80.0
24	98.0	86.0
25	98.0	82.0
26	80.0	62.0
27	82.0	62.0
28	52.0	52.0
29	42.0	42.0
30	25.0	11.0
31	104.0	86.0
32	44.0	38.0
33	78.0	64.0
34	98.0	80.0
35	16.0	4.0
36	46.0	48.0
37	44.0	42.0
38	100.0	82.0
39	52.0	54.0
DEMAND_SECTION
1	0
2	14
3	16
4	18
5	20
6	1
7	12
8	13
9	18
10	9
11	15
12	8
13	10
14	7
15	18
16	14
17	1
18	15
19	7
20	25
21	2
22	3
23	4
24	16
25	15
26	23
27	11
28	21
29	10
30	12
31	9
32	7
33	8
34	4
35	23
36	8
37	6
38	2
39	15
DEPOT_SECTION
1
-1
EOF
