experiment/data/hgs-res/Vrp-Set-B-n39/Vrp-Set-B-n39-hgs/0.hgs1.log
=========== Algorithm Parameters =================
---- nbGranular        is set to 20
---- mu                is set to 25
---- lambda            is set to 40
---- nbElite           is set to 4
---- nbClose           is set to 5
---- targetFeasible    is set to 0.2
---- seed              is set to 1234
---- nbIter            is set to 20000
---- timeLimit         is set to 0
---- useSwapStar       is set to 1
==================================================
----- READING INSTANCE: baseline_results/cvrp_hgs/Vrp-Set-B-n39/Vrp-Set-B-n39-hgs/0.hgs1.vrp
----- FLEET SIZE WAS NOT SPECIFIED: DEFAULT INITIALIZATION TO 9 VEHICLES
----- INSTANCE SUCCESSFULLY LOADED WITH 38 CLIENTS AND 9 VEHICLES
----- BUILDING INITIAL POPULATION
----- STARTING GENETIC ALGORITHM
It      0      2 | T(s) 0.03 | Feas 56 553.16 555.37 | Inf 11 555.84 556.62 | Div 0.25 0.16 | Feas 0.89 1.00 | Pen 4.39 0.85
It    500    502 | T(s) 0.18 | Feas 57 553.16 554.14 | Inf 51 550.76 550.80 | Div 0.23 0.12 | Feas 0.25 1.00 | Pen 2.70 0.38
It   1000   1002 | T(s) 0.29 | Feas 33 553.16 555.13 | Inf 55 549.68 549.82 | Div 0.29 0.14 | Feas 0.31 1.00 | Pen 2.34 0.17
It   1500   1502 | T(s) 0.41 | Feas 34 553.16 554.80 | Inf 39 549.97 552.08 | Div 0.28 0.22 | Feas 0.14 1.00 | Pen 2.43 0.10
It   2000   2002 | T(s) 0.53 | Feas 30 553.16 555.65 | Inf 61 549.00 549.04 | Div 0.31 0.11 | Feas 0.26 1.00 | Pen 2.11 0.10
It   2500   2502 | T(s) 0.65 | Feas 28 553.16 556.04 | Inf 60 550.41 550.46 | Div 0.33 0.13 | Feas 0.11 1.00 | Pen 2.58 0.10
It   3000   3002 | T(s) 0.77 | Feas 45 553.16 554.71 | Inf 43 550.57 551.70 | Div 0.25 0.18 | Feas 0.14 1.00 | Pen 2.63 0.10
It   3500   3502 | T(s) 0.89 | Feas 28 553.16 556.08 | Inf 29 550.89 555.46 | Div 0.33 0.32 | Feas 0.14 1.00 | Pen 2.74 0.10
It   4000   4002 | T(s) 1.01 | Feas 42 553.16 555.93 | Inf 33 549.79 552.48 | Div 0.28 0.25 | Feas 0.34 1.00 | Pen 2.38 0.10
It   4500   4502 | T(s) 1.12 | Feas 33 553.16 555.55 | Inf 55 548.73 549.27 | Div 0.30 0.16 | Feas 0.16 1.00 | Pen 2.02 0.10
It   5000   5002 | T(s) 1.23 | Feas 54 553.16 554.17 | Inf 55 550.08 550.12 | Div 0.23 0.11 | Feas 0.23 1.00 | Pen 2.47 0.10
It   5500   5502 | T(s) 1.35 | Feas 26 553.16 557.30 | Inf 34 549.10 552.45 | Div 0.37 0.26 | Feas 0.27 1.00 | Pen 2.14 0.10
It   6000   6002 | T(s) 1.47 | Feas 35 553.16 555.22 | Inf 26 549.36 556.38 | Div 0.28 0.34 | Feas 0.27 1.00 | Pen 2.23 0.10
It   6500   6502 | T(s) 1.59 | Feas 47 553.16 554.51 | Inf 58 549.63 549.98 | Div 0.25 0.15 | Feas 0.18 1.00 | Pen 2.32 0.10
It   7000   7002 | T(s) 1.71 | Feas 31 553.16 556.19 | Inf 33 548.82 551.67 | Div 0.32 0.26 | Feas 0.27 1.00 | Pen 2.05 0.10
It   7500   7502 | T(s) 1.82 | Feas 45 553.16 554.92 | Inf 62 550.35 550.40 | Div 0.25 0.13 | Feas 0.14 1.00 | Pen 2.56 0.10
It   8000   8002 | T(s) 1.94 | Feas 54 553.16 554.79 | Inf 48 550.66 551.07 | Div 0.24 0.16 | Feas 0.14 1.00 | Pen 2.66 0.10
It   8500   8502 | T(s) 2.06 | Feas 36 553.16 555.48 | Inf 27 549.46 555.24 | Div 0.29 0.33 | Feas 0.17 1.00 | Pen 2.26 0.10
It   9000   9002 | T(s) 2.18 | Feas 43 553.16 554.20 | Inf 58 549.60 549.66 | Div 0.24 0.13 | Feas 0.31 1.00 | Pen 2.31 0.10
It   9500   9502 | T(s) 2.30 | Feas 60 553.16 553.95 | Inf 54 551.15 551.93 | Div 0.22 0.17 | Feas 0.14 1.00 | Pen 2.83 0.10
It  10000  10002 | T(s) 2.41 | Feas 60 553.16 553.73 | Inf 26 550.17 558.26 | Div 0.21 0.35 | Feas 0.13 1.00 | Pen 2.50 0.10
It  10500  10502 | T(s) 2.53 | Feas 41 553.16 555.71 | Inf 42 550.32 550.87 | Div 0.27 0.17 | Feas 0.24 1.00 | Pen 2.55 0.10
It  11000  11002 | T(s) 2.64 | Feas 30 553.16 555.56 | Inf 42 549.30 551.59 | Div 0.31 0.21 | Feas 0.35 1.00 | Pen 2.21 0.10
It  11500  11502 | T(s) 2.77 | Feas 25 553.16 556.28 | Inf 37 550.79 553.02 | Div 0.35 0.23 | Feas 0.14 1.00 | Pen 2.71 0.10
It  12000  12002 | T(s) 2.88 | Feas 55 553.16 554.24 | Inf 45 549.71 550.71 | Div 0.23 0.18 | Feas 0.30 1.00 | Pen 2.35 0.10
It  12500  12502 | T(s) 3.00 | Feas 54 553.16 553.64 | Inf 30 549.85 553.93 | Div 0.21 0.30 | Feas 0.20 1.00 | Pen 2.39 0.10
It  13000  13002 | T(s) 3.11 | Feas 40 553.16 554.39 | Inf 48 548.89 549.47 | Div 0.26 0.16 | Feas 0.23 1.00 | Pen 2.08 0.10
It  13500  13502 | T(s) 3.22 | Feas 25 553.16 557.43 | Inf 48 550.29 550.69 | Div 0.36 0.16 | Feas 0.09 1.00 | Pen 2.54 0.10
It  14000  14002 | T(s) 3.34 | Feas 29 553.16 556.12 | Inf 28 549.27 553.63 | Div 0.33 0.31 | Feas 0.26 1.00 | Pen 2.20 0.10
It  14500  14502 | T(s) 3.46 | Feas 38 553.16 554.80 | Inf 60 550.75 550.80 | Div 0.27 0.12 | Feas 0.13 1.00 | Pen 2.70 0.10
It  15000  15002 | T(s) 3.58 | Feas 52 553.16 553.74 | Inf 44 549.68 551.52 | Div 0.22 0.20 | Feas 0.19 1.00 | Pen 2.34 0.10
It  15500  15502 | T(s) 3.69 | Feas 52 553.16 553.85 | Inf 26 549.96 556.66 | Div 0.22 0.34 | Feas 0.12 1.00 | Pen 2.43 0.10
It  16000  16002 | T(s) 3.81 | Feas 61 553.16 553.65 | Inf 50 550.26 552.13 | Div 0.21 0.20 | Feas 0.12 1.00 | Pen 2.53 0.10
It  16500  16502 | T(s) 3.93 | Feas 31 553.16 556.17 | Inf 65 549.25 549.29 | Div 0.32 0.11 | Feas 0.34 1.00 | Pen 2.19 0.10
It  17000  17002 | T(s) 4.04 | Feas 36 553.16 555.65 | Inf 48 549.51 549.72 | Div 0.30 0.15 | Feas 0.26 1.00 | Pen 2.28 0.10
It  17500  17502 | T(s) 4.16 | Feas 41 553.16 554.29 | Inf 32 551.05 553.74 | Div 0.25 0.27 | Feas 0.24 1.00 | Pen 2.79 0.10
It  18000  18002 | T(s) 4.28 | Feas 33 553.16 554.72 | Inf 41 549.93 551.32 | Div 0.28 0.20 | Feas 0.24 1.00 | Pen 2.42 0.10
It  18500  18502 | T(s) 4.39 | Feas 46 553.16 555.10 | Inf 57 548.97 549.24 | Div 0.26 0.15 | Feas 0.29 1.00 | Pen 2.10 0.10
It  19000  19002 | T(s) 4.51 | Feas 47 553.16 553.57 | Inf 48 549.09 549.70 | Div 0.21 0.16 | Feas 0.17 1.00 | Pen 2.14 0.10
It  19500  19502 | T(s) 4.63 | Feas 29 553.16 556.64 | Inf 29 549.35 553.64 | Div 0.34 0.30 | Feas 0.28 1.00 | Pen 2.23 0.10
----- GENETIC ALGORITHM FINISHED AFTER 20000 ITERATIONS. TIME SPENT: 4.74718
----- WRITING BEST SOLUTION IN : baseline_results/cvrp_hgs/Vrp-Set-B-n39/Vrp-Set-B-n39-hgs/0.hgs1.tour
