experiment/data/hgs-res/Vrp-Set-B-n39/Vrp-Set-B-n39-hgs/0.hgs1.tour
Route #1: 9 19 20 6 18 10 13 14
Route #2: 8 7 34 29
Route #3: 27 38 32 25 12 11 15 5
Route #4: 2 33 21 24 37 23 30 16 22 26 1
Route #5: 3 28 4 35 17 36 31
Cost 553.156
